57 18 27906
18 10 28652
10 44 75759
44 53 84806
53 37 6554
37 62 30446
62 39 8740
39 51 11004
51 35 8926
35 68 19070
68 8 34471
8 36 11459
36 15 14151
15 58 6904
58 9 1777
9 17 5356
17 27 1445
27 45 8214
45 2 15587
2 65 19463
65 13 18316
13 54 13536
54 1 18207
1 12 10465
12 42 4831
42 32 5759
32 56 1427
56 40 3489
40 5 3130
5 29 9526
29 60 6419
60 19 15596
19 49 8895
49 23 4353
23 6 16175
6 25 11949
25 30 1249
30 41 5056
41 64 28668
64 67 14572
67 11 45840
11 66 13370
66 26 57991
26 55 61621
55 34 20835
34 46 36286
46 43 69394
43 7 52950
7 38 28523
38 21 42598
21 3 17216
3 61 12947
61 24 5437
24 47 15612
47 20 12843
20 4 4440
4 48 7248
48 63 23516
63 16 14689
16 59 10880
59 50 29672
50 28 10810
28 31 65445
31 22 39447
22 14 67712
14 52 39276
52 33 101509
33 57 88918
